Assets/LKHProbs~/skull.78.tsp
NAME : GeneratedProblem
COMMENT : SVGCrosshatch
TYPE : TSP
DIMENSION : 24
EDGE_WEIGHT_TYPE : EUC_2D
NODE_COORD_SECTION
1 3000 4600
2 3000 4700
3 3000 4800
4 3000 4900
5 3000 5000
6 3000 5100
7 3100 4600
8 3100 4700
9 3100 4800
10 3100 4900
11 3100 5000
12 3100 5100
13 3100 5200
14 3100 5300
15 3200 4600
16 3200 4700
17 3300 4600
18 3300 4700
19 3900 4600
20 3900 4700
21 3900 4800
22 3900 4900
23 4000 4600
24 4000 4700
EOF
