Assets/LKHProbs~/skull.78.out.txt
NAME : GeneratedProblem.3556.tour
COMMENT : Length = 3556
COMMENT : Found by LKH [Keld Helsgaun] Sun Nov 25 13:18:02 2018
TYPE : TOUR
DIMENSION : 24
TOUR_SECTION
1
2
3
4
5
6
14
13
12
11
10
9
8
16
18
22
21
20
24
23
19
17
15
7
-1
EOF
